p edge 70 1855
e 1 10 12
e 1 11 13
e 1 12 14
e 1 13 15
e 1 14 16
e 1 15 17
e 1 20 22
e 1 21 23
e 1 22 24
e 1 23 25
e 1 24 26
e 1 25 27
e 1 26 28
e 1 27 29
e 1 28 30
e 1 29 31
e 1 30 32
e 1 31 33
e 1 32 34
e 1 33 35
e 1 34 36
e 1 35 37
e 1 40 42
e 1 41 43
e 1 42 44
e 1 43 45
e 1 44 46
e 1 45 47
e 1 46 48
e 1 47 49
e 1 48 50
e 1 49 51
e 1 50 52
e 1 51 53
e 1 52 54
e 1 53 55
e 1 54 56
e 1 55 57
e 1 56 58
e 1 57 59
e 1 58 60
e 1 59 61
e 1 60 62
e 1 61 63
e 1 62 64
e 1 63 65
e 1 64 66
e 1 65 67
e 1 66 68
e 1 67 69
e 1 68 70
e 1 69 71
e 1 70 72
e 2 7 10
e 2 8 11
e 2 9 12
e 2 13 16
e 2 14 17
e 2 15 18
e 2 17 20
e 2 18 21
e 2 19 22
e 2 23 26
e 2 24 27
e 2 25 28
e 2 26 29
e 2 27 30
e 2 28 31
e 2 29 32
e 2 30 33
e 2 31 34
e 2 32 35
e 2 33 36
e 2 34 37
e 2 35 38
e 2 37 40
e 2 38 41
e 2 39 42
e 2 43 46
e 2 44 47
e 2 45 48
e 2 46 49
e 2 47 50
e 2 48 51
e 2 49 52
e 2 50 53
e 2 51 54
e 2 52 55
e 2 53 56
e 2 54 57
e 2 55 58
e 2 56 59
e 2 57 60
e 2 58 61
e 2 59 62
e 2 60 63
e 2 61 64
e 2 62 65
e 2 63 66
e 2 64 67
e 2 65 68
e 2 66 69
e 2 67 70
e 2 68 71
e 2 69 72
e 2 70 73
e 3 6 10
e 3 8 12
e 3 9 13
e 3 11 15
e 3 12 16
e 3 15 19
e 3 16 20
e 3 18 22
e 3 19 23
e 3 21 25
e 3 22 26
e 3 25 29
e 3 26 30
e 3 27 31
e 3 28 32
e 3 29 33
e 3 30 34
e 3 31 35
e 3 32 36
e 3 33 37
e 3 34 38
e 3 35 39
e 3 36 40
e 3 38 42
e 3 39 43
e 3 41 45
e 3 42 46
e 3 45 49
e 3 46 50
e 3 47 51
e 3 48 52
e 3 49 53
e 3 50 54
e 3 51 55
e 3 52 56
e 3 53 57
e 3 54 58
e 3 55 59
e 3 56 60
e 3 57 61
e 3 58 62
e 3 59 63
e 3 60 64
e 3 61 65
e 3 62 66
e 3 63 67
e 3 64 68
e 3 65 69
e 3 66 70
e 3 67 71
e 3 68 72
e 3 69 73
e 3 70 74
e 4 6 11
e 4 7 12
e 4 9 14
e 4 10 15
e 4 12 17
e 4 14 19
e 4 16 21
e 4 17 22
e 4 19 24
e 4 20 25
e 4 22 27
e 4 24 29
e 4 26 31
e 4 27 32
e 4 28 33
e 4 29 34
e 4 30 35
e 4 31 36
e 4 32 37
e 4 33 38
e 4 34 39
e 4 35 40
e 4 36 41
e 4 37 42
e 4 39 44
e 4 40 45
e 4 42 47
e 4 44 49
e 4 46 51
e 4 47 52
e 4 48 53
e 4 49 54
e 4 50 55
e 4 51 56
e 4 52 57
e 4 53 58
e 4 54 59
e 4 55 60
e 4 56 61
e 4 57 62
e 4 58 63
e 4 59 64
e 4 60 65
e 4 61 66
e 4 62 67
e 4 63 68
e 4 64 69
e 4 65 70
e 4 66 71
e 4 67 72
e 4 68 73
e 4 69 74
e 4 70 75
e 5 6 12
e 5 7 13
e 5 8 14
e 5 10 16
e 5 11 17
e 5 13 19
e 5 16 22
e 5 17 23
e 5 18 24
e 5 20 26
e 5 21 27
e 5 23 29
e 5 26 32
e 5 27 33
e 5 28 34
e 5 29 35
e 5 30 36
e 5 31 37
e 5 32 38
e 5 33 39
e 5 34 40
e 5 35 41
e 5 36 42
e 5 37 43
e 5 38 44
e 5 40 46
e 5 41 47
e 5 43 49
e 5 46 52
e 5 47 53
e 5 48 54
e 5 49 55
e 5 50 56
e 5 51 57
e 5 52 58
e 5 53 59
e 5 54 60
e 5 55 61
e 5 56 62
e 5 57 63
e 5 58 64
e 5 59 65
e 5 60 66
e 5 61 67
e 5 62 68
e 5 63 69
e 5 64 70
e 5 65 71
e 5 66 72
e 5 67 73
e 5 68 74
e 5 69 75
e 5 70 76
e 6 13 20
e 6 14 21
e 6 15 22
e 6 17 24
e 6 18 25
e 6 19 26
e 6 20 27
e 6 21 28
e 6 22 29
e 6 23 30
e 6 24 31
e 6 25 32
e 6 29 36
e 6 30 37
e 6 31 38
e 6 32 39
e 6 33 40
e 6 34 41
e 6 35 42
e 6 37 44
e 6 38 45
e 6 39 46
e 6 40 47
e 6 41 48
e 6 42 49
e 6 43 50
e 6 44 51
e 6 45 52
e 6 49 56
e 6 50 57
e 6 51 58
e 6 52 59
e 6 53 60
e 6 54 61
e 6 55 62
e 6 56 63
e 6 57 64
e 6 58 65
e 6 59 66
e 6 60 67
e 6 61 68
e 6 62 69
e 6 63 70
e 6 64 71
e 6 65 72
e 6 66 73
e 6 67 74
e 6 68 75
e 6 69 76
e 6 70 77
e 7 11 19
e 7 12 20
e 7 15 23
e 7 16 24
e 7 18 26
e 7 19 27
e 7 20 28
e 7 21 29
e 7 22 30
e 7 23 31
e 7 24 32
e 7 25 33
e 7 27 35
e 7 28 36
e 7 31 39
e 7 32 40
e 7 33 41
e 7 34 42
e 7 35 43
e 7 36 44
e 7 38 46
e 7 39 47
e 7 40 48
e 7 41 49
e 7 42 50
e 7 43 51
e 7 44 52
e 7 45 53
e 7 47 55
e 7 48 56
e 7 51 59
e 7 52 60
e 7 53 61
e 7 54 62
e 7 55 63
e 7 56 64
e 7 57 65
e 7 58 66
e 7 59 67
e 7 60 68
e 7 61 69
e 7 62 70
e 7 63 71
e 7 64 72
e 7 65 73
e 7 66 74
e 7 67 75
e 7 68 76
e 7 69 77
e 7 70 78
e 8 10 19
e 8 12 21
e 8 14 23
e 8 16 25
e 8 17 26
e 8 19 28
e 8 20 29
e 8 21 30
e 8 22 31
e 8 23 32
e 8 24 33
e 8 25 34
e 8 26 35
e 8 28 37
e 8 30 39
e 8 32 41
e 8 33 42
e 8 34 43
e 8 35 44
e 8 36 45
e 8 37 46
e 8 39 48
e 8 40 49
e 8 41 50
e 8 42 51
e 8 43 52
e 8 44 53
e 8 45 54
e 8 46 55
e 8 48 57
e 8 50 59
e 8 52 61
e 8 53 62
e 8 54 63
e 8 55 64
e 8 56 65
e 8 57 66
e 8 58 67
e 8 59 68
e 8 60 69
e 8 61 70
e 8 62 71
e 8 63 72
e 8 64 73
e 8 65 74
e 8 66 75
e 8 67 76
e 8 68 77
e 8 69 78
e 8 70 79
e 9 10 20
e 9 11 21
e 9 13 23
e 9 16 26
e 9 17 27
e 9 18 28
e 9 20 30
e 9 21 31
e 9 22 32
e 9 23 33
e 9 24 34
e 9 25 35
e 9 26 36
e 9 27 37
e 9 29 39
e 9 32 42
e 9 33 43
e 9 34 44
e 9 35 45
e 9 36 46
e 9 37 47
e 9 38 48
e 9 40 50
e 9 41 51
e 9 42 52
e 9 43 53
e 9 44 54
e 9 45 55
e 9 46 56
e 9 47 57
e 9 49 59
e 9 52 62
e 9 53 63
e 9 54 64
e 9 55 65
e 9 56 66
e 9 57 67
e 9 58 68
e 9 59 69
e 9 60 70
e 9 61 71
e 9 62 72
e 9 63 73
e 9 64 74
e 9 65 75
e 9 66 76
e 9 67 77
e 9 68 78
e 9 69 79
e 9 70 80
e 10 15 26
e 10 16 27
e 10 17 28
e 10 18 29
e 10 19 30
e 10 21 32
e 10 22 33
e 10 23 34
e 10 24 35
e 10 25 36
e 10 27 38
e 10 28 39
e 10 29 40
e 10 30 41
e 10 31 42
e 10 34 45
e 10 35 46
e 10 36 47
e 10 37 48
e 10 38 49
e 10 39 50
e 10 41 52
e 10 42 53
e 10 43 54
e 10 44 55
e 10 45 56
e 10 47 58
e 10 48 59
e 10 49 60
e 10 50 61
e 10 51 62
e 10 54 65
e 10 55 66
e 10 56 67
e 10 57 68
e 10 58 69
e 10 59 70
e 10 60 71
e 10 61 72
e 10 62 73
e 10 63 74
e 10 64 75
e 10 65 76
e 10 66 77
e 10 67 78
e 10 68 79
e 10 69 80
e 10 70 81
e 11 14 26
e 11 16 28
e 11 17 29
e 11 18 30
e 11 19 31
e 11 20 32
e 11 22 34
e 11 23 35
e 11 24 36
e 11 25 37
e 11 26 38
e 11 28 40
e 11 29 41
e 11 30 42
e 11 31 43
e 11 33 45
e 11 35 47
e 11 36 48
e 11 37 49
e 11 38 50
e 11 39 51
e 11 40 52
e 11 42 54
e 11 43 55
e 11 44 56
e 11 45 57
e 11 46 58
e 11 48 60
e 11 49 61
e 11 50 62
e 11 51 63
e 11 53 65
e 11 55 67
e 11 56 68
e 11 57 69
e 11 58 70
e 11 59 71
e 11 60 72
e 11 61 73
e 11 62 74
e 11 63 75
e 11 64 76
e 11 65 77
e 11 66 78
e 11 67 79
e 11 68 80
e 11 69 81
e 11 70 82
e 12 13 26
e 12 16 29
e 12 17 30
e 12 18 31
e 12 19 32
e 12 20 33
e 12 21 34
e 12 23 36
e 12 24 37
e 12 25 38
e 12 26 39
e 12 27 40
e 12 29 42
e 12 30 43
e 12 31 44
e 12 32 45
e 12 35 48
e 12 36 49
e 12 37 50
e 12 38 51
e 12 39 52
e 12 40 53
e 12 41 54
e 12 43 56
e 12 44 57
e 12 45 58
e 12 46 59
e 12 47 60
e 12 49 62
e 12 50 63
e 12 51 64
e 12 52 65
e 12 55 68
e 12 56 69
e 12 57 70
e 12 58 71
e 12 59 72
e 12 60 73
e 12 61 74
e 12 62 75
e 12 63 76
e 12 64 77
e 12 65 78
e 12 66 79
e 12 67 80
e 12 68 81
e 12 69 82
e 12 70 83
e 13 16 30
e 13 17 31
e 13 18 32
e 13 19 33
e 13 20 34
e 13 21 35
e 13 22 36
e 13 24 38
e 13 25 39
e 13 26 40
e 13 27 41
e 13 28 42
e 13 30 44
e 13 31 45
e 13 33 47
e 13 34 48
e 13 36 50
e 13 37 51
e 13 38 52
e 13 39 53
e 13 40 54
e 13 41 55
e 13 42 56
e 13 44 58
e 13 45 59
e 13 46 60
e 13 47 61
e 13 48 62
e 13 50 64
e 13 51 65
e 13 53 67
e 13 54 68
e 13 56 70
e 13 57 71
e 13 58 72
e 13 59 73
e 13 60 74
e 13 61 75
e 13 62 76
e 13 63 77
e 13 64 78
e 13 65 79
e 13 66 80
e 13 67 81
e 13 68 82
e 13 69 83
e 13 70 84
e 14 16 31
e 14 17 32
e 14 18 33
e 14 19 34
e 14 20 35
e 14 21 36
e 14 22 37
e 14 23 38
e 14 25 40
e 14 26 41
e 14 27 42
e 14 28 43
e 14 29 44
e 14 31 46
e 14 32 47
e 14 34 49
e 14 36 51
e 14 37 52
e 14 38 53
e 14 39 54
e 14 40 55
e 14 41 56
e 14 42 57
e 14 43 58
e 14 45 60
e 14 46 61
e 14 47 62
e 14 48 63
e 14 49 64
e 14 51 66
e 14 52 67
e 14 54 69
e 14 56 71
e 14 57 72
e 14 58 73
e 14 59 74
e 14 60 75
e 14 61 76
e 14 62 77
e 14 63 78
e 14 64 79
e 14 65 80
e 14 66 81
e 14 67 82
e 14 68 83
e 14 69 84
e 14 70 85
e 15 16 32
e 15 17 33
e 15 18 34
e 15 19 35
e 15 20 36
e 15 21 37
e 15 22 38
e 15 23 39
e 15 24 40
e 15 26 42
e 15 27 43
e 15 28 44
e 15 29 45
e 15 30 46
e 15 32 48
e 15 33 49
e 15 36 52
e 15 37 53
e 15 38 54
e 15 39 55
e 15 40 56
e 15 41 57
e 15 42 58
e 15 43 59
e 15 44 60
e 15 46 62
e 15 47 63
e 15 48 64
e 15 49 65
e 15 50 66
e 15 52 68
e 15 53 69
e 15 56 72
e 15 57 73
e 15 58 74
e 15 59 75
e 15 60 76
e 15 61 77
e 15 62 78
e 15 63 79
e 15 64 80
e 15 65 81
e 15 66 82
e 15 67 83
e 15 68 84
e 15 69 85
e 15 70 86
e 16 23 40
e 16 24 41
e 16 25 42
e 16 29 46
e 16 30 47
e 16 31 48
e 16 32 49
e 16 33 50
e 16 34 51
e 16 35 52
e 16 37 54
e 16 38 55
e 16 39 56
e 16 40 57
e 16 41 58
e 16 42 59
e 16 43 60
e 16 44 61
e 16 45 62
e 16 46 63
e 16 47 64
e 16 48 65
e 16 49 66
e 16 50 67
e 16 51 68
e 16 52 69
e 16 53 70
e 16 54 71
e 16 55 72
e 16 59 76
e 16 60 77
e 16 61 78
e 16 62 79
e 16 63 80
e 16 64 81
e 16 65 82
e 16 66 83
e 16 67 84
e 16 68 85
e 16 69 86
e 16 70 87
e 17 21 39
e 17 22 40
e 17 25 43
e 17 27 45
e 17 28 46
e 17 31 49
e 17 32 50
e 17 33 51
e 17 34 52
e 17 35 53
e 17 36 54
e 17 38 56
e 17 39 57
e 17 40 58
e 17 41 59
e 17 42 60
e 17 43 61
e 17 44 62
e 17 45 63
e 17 46 64
e 17 47 65
e 17 48 66
e 17 49 67
e 17 50 68
e 17 51 69
e 17 52 70
e 17 53 71
e 17 54 72
e 17 55 73
e 17 57 75
e 17 58 76
e 17 61 79
e 17 62 80
e 17 63 81
e 17 64 82
e 17 65 83
e 17 66 84
e 17 67 85
e 17 68 86
e 17 69 87
e 17 70 88
e 18 20 39
e 18 22 41
e 18 24 43
e 18 26 45
e 18 28 47
e 18 30 49
e 18 32 51
e 18 33 52
e 18 34 53
e 18 35 54
e 18 36 55
e 18 37 56
e 18 39 58
e 18 40 59
e 18 41 60
e 18 42 61
e 18 43 62
e 18 44 63
e 18 45 64
e 18 46 65
e 18 47 66
e 18 48 67
e 18 49 68
e 18 50 69
e 18 51 70
e 18 52 71
e 18 53 72
e 18 54 73
e 18 55 74
e 18 56 75
e 18 58 77
e 18 60 79
e 18 62 81
e 18 63 82
e 18 64 83
e 18 65 84
e 18 66 85
e 18 67 86
e 18 68 87
e 18 69 88
e 18 70 89
e 19 20 40
e 19 21 41
e 19 23 43
e 19 26 46
e 19 27 47
e 19 29 49
e 19 32 52
e 19 33 53
e 19 34 54
e 19 35 55
e 19 36 56
e 19 37 57
e 19 38 58
e 19 40 60
e 19 41 61
e 19 42 62
e 19 43 63
e 19 44 64
e 19 45 65
e 19 46 66
e 19 47 67
e 19 48 68
e 19 49 69
e 19 50 70
e 19 51 71
e 19 52 72
e 19 53 73
e 19 54 74
e 19 55 75
e 19 56 76
e 19 57 77
e 19 59 79
e 19 62 82
e 19 63 83
e 19 64 84
e 19 65 85
e 19 66 86
e 19 67 87
e 19 68 88
e 19 69 89
e 19 70 90
e 20 25 46
e 20 27 48
e 20 28 49
e 20 29 50
e 20 30 51
e 20 31 52
e 20 34 55
e 20 35 56
e 20 36 57
e 20 37 58
e 20 38 59
e 20 39 60
e 20 41 62
e 20 42 63
e 20 43 64
e 20 44 65
e 20 45 66
e 20 46 67
e 20 47 68
e 20 48 69
e 20 49 70
e 20 50 71
e 20 51 72
e 20 52 73
e 20 53 74
e 20 54 75
e 20 55 76
e 20 57 78
e 20 58 79
e 20 59 80
e 20 60 81
e 20 61 82
e 20 64 85
e 20 65 86
e 20 66 87
e 20 67 88
e 20 68 89
e 20 69 90
e 20 70 91
e 21 24 46
e 21 26 48
e 21 28 50
e 21 29 51
e 21 30 52
e 21 31 53
e 21 33 55
e 21 35 57
e 21 36 58
e 21 37 59
e 21 38 60
e 21 39 61
e 21 40 62
e 21 42 64
e 21 43 65
e 21 44 66
e 21 45 67
e 21 46 68
e 21 47 69
e 21 48 70
e 21 49 71
e 21 50 72
e 21 51 73
e 21 52 74
e 21 53 75
e 21 54 76
e 21 55 77
e 21 56 78
e 21 58 80
e 21 59 81
e 21 60 82
e 21 61 83
e 21 63 85
e 21 65 87
e 21 66 88
e 21 67 89
e 21 68 90
e 21 69 91
e 21 70 92
e 22 23 46
e 22 26 49
e 22 27 50
e 22 29 52
e 22 30 53
e 22 31 54
e 22 32 55
e 22 35 58
e 22 36 59
e 22 37 60
e 22 38 61
e 22 39 62
e 22 40 63
e 22 41 64
e 22 43 66
e 22 44 67
e 22 45 68
e 22 46 69
e 22 47 70
e 22 48 71
e 22 49 72
e 22 50 73
e 22 51 74
e 22 52 75
e 22 53 76
e 22 54 77
e 22 55 78
e 22 56 79
e 22 57 80
e 22 59 82
e 22 60 83
e 22 61 84
e 22 62 85
e 22 65 88
e 22 66 89
e 22 67 90
e 22 68 91
e 22 69 92
e 22 70 93
e 23 26 50
e 23 27 51
e 23 28 52
e 23 30 54
e 23 31 55
e 23 33 57
e 23 34 58
e 23 36 60
e 23 37 61
e 23 38 62
e 23 39 63
e 23 40 64
e 23 41 65
e 23 42 66
e 23 44 68
e 23 45 69
e 23 46 70
e 23 47 71
e 23 48 72
e 23 49 73
e 23 50 74
e 23 51 75
e 23 52 76
e 23 53 77
e 23 54 78
e 23 55 79
e 23 56 80
e 23 57 81
e 23 58 82
e 23 60 84
e 23 61 85
e 23 63 87
e 23 64 88
e 23 66 90
e 23 67 91
e 23 68 92
e 23 69 93
e 23 70 94
e 24 26 51
e 24 27 52
e 24 28 53
e 24 29 54
e 24 31 56
e 24 32 57
e 24 34 59
e 24 36 61
e 24 37 62
e 24 38 63
e 24 39 64
e 24 40 65
e 24 41 66
e 24 42 67
e 24 43 68
e 24 45 70
e 24 46 71
e 24 47 72
e 24 48 73
e 24 49 74
e 24 50 75
e 24 51 76
e 24 52 77
e 24 53 78
e 24 54 79
e 24 55 80
e 24 56 81
e 24 57 82
e 24 58 83
e 24 59 84
e 24 61 86
e 24 62 87
e 24 64 89
e 24 66 91
e 24 67 92
e 24 68 93
e 24 69 94
e 24 70 95
e 25 26 52
e 25 27 53
e 25 28 54
e 25 29 55
e 25 30 56
e 25 32 58
e 25 33 59
e 25 36 62
e 25 37 63
e 25 38 64
e 25 39 65
e 25 40 66
e 25 41 67
e 25 42 68
e 25 43 69
e 25 44 70
e 25 46 72
e 25 47 73
e 25 48 74
e 25 49 75
e 25 50 76
e 25 51 77
e 25 52 78
e 25 53 79
e 25 54 80
e 25 55 81
e 25 56 82
e 25 57 83
e 25 58 84
e 25 59 85
e 25 60 86
e 25 62 88
e 25 63 89
e 25 66 92
e 25 67 93
e 25 68 94
e 25 69 95
e 25 70 96
e 26 31 58
e 26 34 61
e 26 35 62
e 26 36 63
e 26 37 64
e 26 38 65
e 26 39 66
e 26 40 67
e 26 41 68
e 26 42 69
e 26 43 70
e 26 44 71
e 26 45 72
e 26 47 74
e 26 48 75
e 26 49 76
e 26 50 77
e 26 51 78
e 26 52 79
e 26 53 80
e 26 54 81
e 26 55 82
e 26 57 84
e 26 58 85
e 26 59 86
e 26 60 87
e 26 61 88
e 26 62 89
e 26 63 90
e 26 64 91
e 26 65 92
e 26 68 95
e 26 69 96
e 26 70 97
e 27 30 58
e 27 33 61
e 27 35 63
e 27 36 64
e 27 37 65
e 27 38 66
e 27 39 67
e 27 40 68
e 27 41 69
e 27 42 70
e 27 43 71
e 27 44 72
e 27 45 73
e 27 46 74
e 27 48 76
e 27 49 77
e 27 50 78
e 27 51 79
e 27 52 80
e 27 53 81
e 27 54 82
e 27 55 83
e 27 56 84
e 27 58 86
e 27 59 87
e 27 60 88
e 27 61 89
e 27 62 90
e 27 63 91
e 27 64 92
e 27 65 93
e 27 67 95
e 27 69 97
e 27 70 98
e 28 29 58
e 28 32 61
e 28 35 64
e 28 36 65
e 28 37 66
e 28 38 67
e 28 39 68
e 28 40 69
e 28 41 70
e 28 42 71
e 28 43 72
e 28 44 73
e 28 45 74
e 28 46 75
e 28 47 76
e 28 49 78
e 28 50 79
e 28 51 80
e 28 52 81
e 28 53 82
e 28 54 83
e 28 55 84
e 28 56 85
e 28 57 86
e 28 59 88
e 28 60 89
e 28 61 90
e 28 62 91
e 28 63 92
e 28 64 93
e 28 65 94
e 28 66 95
e 28 69 98
e 28 70 99
e 29 33 63
e 29 34 64
e 29 36 66
e 29 37 67
e 29 38 68
e 29 39 69
e 29 40 70
e 29 41 71
e 29 42 72
e 29 43 73
e 29 44 74
e 29 45 75
e 29 46 76
e 29 47 77
e 29 48 78
e 29 50 80
e 29 51 81
e 29 52 82
e 29 53 83
e 29 54 84
e 29 55 85
e 29 56 86
e 29 57 87
e 29 58 88
e 29 60 90
e 29 61 91
e 29 62 92
e 29 63 93
e 29 64 94
e 29 65 95
e 29 67 97
e 29 68 98
e 29 70 100
e 30 32 63
e 30 34 65
e 30 36 67
e 30 37 68
e 30 38 69
e 30 39 70
e 30 40 71
e 30 41 72
e 30 42 73
e 30 43 74
e 30 44 75
e 30 45 76
e 30 46 77
e 30 47 78
e 30 48 79
e 30 49 80
e 30 51 82
e 30 52 83
e 30 53 84
e 30 54 85
e 30 55 86
e 30 56 87
e 30 57 88
e 30 58 89
e 30 59 90
e 30 61 92
e 30 62 93
e 30 63 94
e 30 64 95
e 30 65 96
e 30 66 97
e 30 68 99
e 30 70 101
e 31 32 64
e 31 33 65
e 31 36 68
e 31 37 69
e 31 38 70
e 31 39 71
e 31 40 72
e 31 41 73
e 31 42 74
e 31 43 75
e 31 44 76
e 31 45 77
e 31 46 78
e 31 47 79
e 31 48 80
e 31 49 81
e 31 50 82
e 31 52 84
e 31 53 85
e 31 54 86
e 31 55 87
e 31 56 88
e 31 57 89
e 31 58 90
e 31 59 91
e 31 60 92
e 31 62 94
e 31 63 95
e 31 64 96
e 31 65 97
e 31 66 98
e 31 67 99
e 31 70 102
e 32 36 69
e 32 37 70
e 32 38 71
e 32 39 72
e 32 40 73
e 32 41 74
e 32 42 75
e 32 43 76
e 32 44 77
e 32 45 78
e 32 46 79
e 32 47 80
e 32 48 81
e 32 49 82
e 32 50 83
e 32 51 84
e 32 53 86
e 32 54 87
e 32 55 88
e 32 56 89
e 32 57 90
e 32 58 91
e 32 59 92
e 32 60 93
e 32 61 94
e 32 63 96
e 32 64 97
e 32 65 98
e 32 67 100
e 32 68 101
e 32 69 102
e 33 36 70
e 33 37 71
e 33 38 72
e 33 39 73
e 33 40 74
e 33 41 75
e 33 42 76
e 33 43 77
e 33 44 78
e 33 45 79
e 33 46 80
e 33 47 81
e 33 48 82
e 33 49 83
e 33 50 84
e 33 51 85
e 33 52 86
e 33 54 88
e 33 55 89
e 33 56 90
e 33 57 91
e 33 58 92
e 33 59 93
e 33 60 94
e 33 61 95
e 33 62 96
e 33 64 98
e 33 65 99
e 33 66 100
e 33 68 102
e 33 69 103
e 34 36 71
e 34 37 72
e 34 38 73
e 34 39 74
e 34 40 75
e 34 41 76
e 34 42 77
e 34 43 78
e 34 44 79
e 34 45 80
e 34 46 81
e 34 47 82
e 34 48 83
e 34 49 84
e 34 50 85
e 34 51 86
e 34 52 87
e 34 53 88
e 34 55 90
e 34 56 91
e 34 57 92
e 34 58 93
e 34 59 94
e 34 60 95
e 34 61 96
e 34 62 97
e 34 63 98
e 34 65 100
e 34 66 101
e 34 67 102
e 34 69 104
e 35 36 72
e 35 37 73
e 35 38 74
e 35 39 75
e 35 40 76
e 35 41 77
e 35 42 78
e 35 43 79
e 35 44 80
e 35 45 81
e 35 46 82
e 35 47 83
e 35 48 84
e 35 49 85
e 35 50 86
e 35 51 87
e 35 52 88
e 35 53 89
e 35 54 90
e 35 56 92
e 35 57 93
e 35 58 94
e 35 59 95
e 35 60 96
e 35 61 97
e 35 62 98
e 35 63 99
e 35 64 100
e 35 66 102
e 35 67 103
e 35 68 104
e 36 43 80
e 36 44 81
e 36 45 82
e 36 49 86
e 36 50 87
e 36 51 88
e 36 52 89
e 36 53 90
e 36 54 91
e 36 55 92
e 36 59 96
e 36 60 97
e 36 61 98
e 36 62 99
e 36 63 100
e 36 64 101
e 36 65 102
e 36 66 103
e 36 67 104
e 36 68 105
e 36 69 106
e 36 70 107
e 37 41 79
e 37 42 80
e 37 45 83
e 37 47 85
e 37 48 86
e 37 51 89
e 37 52 90
e 37 53 91
e 37 54 92
e 37 55 93
e 37 57 95
e 37 58 96
e 37 61 99
e 37 62 100
e 37 63 101
e 37 64 102
e 37 65 103
e 37 66 104
e 37 67 105
e 37 68 106
e 37 69 107
e 37 70 108
e 38 40 79
e 38 42 81
e 38 44 83
e 38 46 85
e 38 48 87
e 38 50 89
e 38 52 91
e 38 53 92
e 38 54 93
e 38 55 94
e 38 56 95
e 38 58 97
e 38 60 99
e 38 62 101
e 38 63 102
e 38 64 103
e 38 65 104
e 38 66 105
e 38 67 106
e 38 68 107
e 38 69 108
e 38 70 109
e 39 40 80
e 39 41 81
e 39 43 83
e 39 46 86
e 39 47 87
e 39 49 89
e 39 52 92
e 39 53 93
e 39 54 94
e 39 55 95
e 39 56 96
e 39 57 97
e 39 59 99
e 39 62 102
e 39 63 103
e 39 64 104
e 39 65 105
e 39 66 106
e 39 67 107
e 39 68 108
e 39 69 109
e 39 70 110
e 40 45 86
e 40 47 88
e 40 48 89
e 40 49 90
e 40 50 91
e 40 51 92
e 40 54 95
e 40 55 96
e 40 57 98
e 40 58 99
e 40 59 100
e 40 60 101
e 40 61 102
e 40 64 105
e 40 65 106
e 40 66 107
e 40 67 108
e 40 68 109
e 40 69 110
e 40 70 111
e 41 44 86
e 41 46 88
e 41 48 90
e 41 49 91
e 41 50 92
e 41 51 93
e 41 53 95
e 41 55 97
e 41 56 98
e 41 58 100
e 41 59 101
e 41 60 102
e 41 61 103
e 41 63 105
e 41 65 107
e 41 66 108
e 41 67 109
e 41 68 110
e 41 69 111
e 41 70 112
e 42 43 86
e 42 46 89
e 42 47 90
e 42 49 92
e 42 50 93
e 42 51 94
e 42 52 95
e 42 55 98
e 42 56 99
e 42 57 100
e 42 59 102
e 42 60 103
e 42 61 104
e 42 62 105
e 42 65 108
e 42 66 109
e 42 67 110
e 42 68 111
e 42 69 112
e 42 70 113
e 43 46 90
e 43 47 91
e 43 48 92
e 43 50 94
e 43 51 95
e 43 53 97
e 43 54 98
e 43 56 100
e 43 57 101
e 43 58 102
e 43 60 104
e 43 61 105
e 43 63 107
e 43 64 108
e 43 66 110
e 43 67 111
e 43 68 112
e 43 69 113
e 43 70 114
e 44 46 91
e 44 47 92
e 44 48 93
e 44 49 94
e 44 51 96
e 44 52 97
e 44 54 99
e 44 56 101
e 44 57 102
e 44 58 103
e 44 59 104
e 44 61 106
e 44 62 107
e 44 64 109
e 44 66 111
e 44 67 112
e 44 68 113
e 44 69 114
e 44 70 115
e 45 46 92
e 45 47 93
e 45 48 94
e 45 49 95
e 45 50 96
e 45 52 98
e 45 53 99
e 45 56 102
e 45 57 103
e 45 58 104
e 45 59 105
e 45 60 106
e 45 62 108
e 45 63 109
e 45 66 112
e 45 67 113
e 45 68 114
e 45 69 115
e 45 70 116
e 46 51 98
e 46 54 101
e 46 55 102
e 46 57 104
e 46 58 105
e 46 59 106
e 46 60 107
e 46 61 108
e 46 62 109
e 46 63 110
e 46 64 111
e 46 65 112
e 46 68 115
e 46 69 116
e 46 70 117
e 47 50 98
e 47 53 101
e 47 55 103
e 47 56 104
e 47 58 106
e 47 59 107
e 47 60 108
e 47 61 109
e 47 62 110
e 47 63 111
e 47 64 112
e 47 65 113
e 47 67 115
e 47 69 117
e 47 70 118
e 48 49 98
e 48 52 101
e 48 55 104
e 48 56 105
e 48 57 106
e 48 59 108
e 48 60 109
e 48 61 110
e 48 62 111
e 48 63 112
e 48 64 113
e 48 65 114
e 48 66 115
e 48 69 118
e 48 70 119
e 49 53 103
e 49 54 104
e 49 56 106
e 49 57 107
e 49 58 108
e 49 60 110
e 49 61 111
e 49 62 112
e 49 63 113
e 49 64 114
e 49 65 115
e 49 67 117
e 49 68 118
e 49 70 120
e 50 52 103
e 50 54 105
e 50 56 107
e 50 57 108
e 50 58 109
e 50 59 110
e 50 61 112
e 50 62 113
e 50 63 114
e 50 64 115
e 50 65 116
e 50 66 117
e 50 68 119
e 50 70 121
e 51 52 104
e 51 53 105
e 51 56 108
e 51 57 109
e 51 58 110
e 51 59 111
e 51 60 112
e 51 62 114
e 51 63 115
e 51 64 116
e 51 65 117
e 51 66 118
e 51 67 119
e 51 70 122
e 52 56 109
e 52 57 110
e 52 58 111
e 52 59 112
e 52 60 113
e 52 61 114
e 52 63 116
e 52 64 117
e 52 65 118
e 52 67 120
e 52 68 121
e 52 69 122
e 53 56 110
e 53 57 111
e 53 58 112
e 53 59 113
e 53 60 114
e 53 61 115
e 53 62 116
e 53 64 118
e 53 65 119
e 53 66 120
e 53 68 122
e 53 69 123
e 54 56 111
e 54 57 112
e 54 58 113
e 54 59 114
e 54 60 115
e 54 61 116
e 54 62 117
e 54 63 118
e 54 65 120
e 54 66 121
e 54 67 122
e 54 69 124
e 55 56 112
e 55 57 113
e 55 58 114
e 55 59 115
e 55 60 116
e 55 61 117
e 55 62 118
e 55 63 119
e 55 64 120
e 55 66 122
e 55 67 123
e 55 68 124
e 56 61 118
e 56 64 121
e 56 65 122
e 56 68 125
e 56 69 126
e 56 70 127
e 57 60 118
e 57 63 121
e 57 65 123
e 57 67 125
e 57 69 127
e 57 70 128
e 58 59 118
e 58 62 121
e 58 65 124
e 58 66 125
e 58 69 128
e 58 70 129
e 59 63 123
e 59 64 124
e 59 67 127
e 59 68 128
e 59 70 130
e 60 62 123
e 60 64 125
e 60 66 127
e 60 68 129
e 60 70 131
e 61 62 124
e 61 63 125
e 61 66 128
e 61 67 129
e 61 70 132
e 62 67 130
e 62 68 131
e 62 69 132
e 63 66 130
e 63 68 132
e 63 69 133
e 64 66 131
e 64 67 132
e 64 69 134
e 65 66 132
e 65 67 133
e 65 68 134
n 1 0
n 2 0
n 3 0
n 4 0
n 5 0
n 6 0
n 7 0
n 8 0
n 9 0
n 10 0
n 11 0
n 12 0
n 13 0
n 14 0
n 15 0
n 16 0
n 17 0
n 18 0
n 19 0
n 20 0
n 21 0
n 22 0
n 23 0
n 24 0
n 25 0
n 26 0
n 27 0
n 28 0
n 29 0
n 30 0
n 31 0
n 32 0
n 33 0
n 34 0
n 35 0
n 36 0
n 37 0
n 38 0
n 39 0
n 40 0
n 41 0
n 42 0
n 43 0
n 44 0
n 45 0
n 46 0
n 47 0
n 48 0
n 49 0
n 50 0
n 51 0
n 52 0
n 53 0
n 54 0
n 55 0
n 56 0
n 57 0
n 58 0
n 59 0
n 60 0
n 61 0
n 62 0
n 63 0
n 64 0
n 65 0
n 66 0
n 67 0
n 68 0
n 69 0
n 70 0
